(set-logic QF_S)
(declare-fun T_1c () Bool)
(declare-fun T_1e () Bool)
(declare-fun T_1f () Bool)
(declare-fun T_SELECT_4 () Bool)
(declare-fun T_SELECT_5 () Bool)
(declare-fun I0_35 () Int)
(declare-fun I0_43 () Int)
(declare-fun I1_43 () Int)
(declare-fun I2_43 () Int)
(declare-fun PCTEMP_LHS_6 () Int)
(declare-fun PCTEMP_LHS_7 () Int)
(declare-fun T_20 () Int)
(declare-fun T0_35 () String)
(declare-fun T1_35 () String)
(declare-fun T2_35 () String)
(declare-fun T3_35 () String)
(declare-fun T4_35 () String)
(declare-fun T5_35 () String)
(declare-fun var_0xINPUT_37424 () String)
(assert (= var_0xINPUT_37424 (str.++ T0_35 T1_35)))
(assert (= T1_35 (str.++ T2_35 T3_35)))
(assert (= T2_35 (str.++ T4_35 T5_35)))
(assert (not (str.in.re T4_35 (str.to.re "__utmz=218069774."))))
(assert (= T5_35 "__utmz=218069774."))
(assert T_1c)
(assert (= T_1c (< (- 1) PCTEMP_LHS_6)))
(assert (= T_SELECT_5 (not (= PCTEMP_LHS_7 (- 1)))))
(assert T_1f)
(assert (= T_1f (not T_1e)))
(assert (= T_1e (< PCTEMP_LHS_7 0)))
(assert (>= PCTEMP_LHS_7 T_20))
(assert (= I2_43 I1_43))
(assert (<= PCTEMP_LHS_7 I1_43))
(assert (= I0_43 (- PCTEMP_LHS_7 T_20)))
(assert (>= T_20 0))
(assert (= T_20 (+ PCTEMP_LHS_6 7)))
(assert (= PCTEMP_LHS_6 (+ I0_35 0)))
(assert (= T_SELECT_4 (not (= PCTEMP_LHS_6 (- 1)))))
(assert (= 0 (str.len T0_35))) ; len 0
(assert (= I0_35 (str.len T4_35))) ; len 1
(assert T_SELECT_4)
(check-sat)
